StudentsNr = 10;
InstructorsNr = 53;
DaysNr = 1;
SlotsPerDay = 10;
AvailabilitySlotsLenght = 2;
RoomNr = 1;
ProgrammNr = 1;
DegreeNr = 3;
RolesNr = 4;
CoursesNr = 7;
InstructorsProgramm = [{1}, {1}, {1}, {1}, {1}, {1}, {1}, {1}, {1}, {1}, {1}, {1}, {1}, {1}, {1}, {1}, {1}, {1}, {1}, {1}, {1}, {1}, {1}, {1}, {1}, {1}, {1}, {1}, {1}, {1}, {1}, {1}, {1}, {1}, {1}, {1}, {1}, {1}, {1}, {1}, {1}, {1}, {1}, {1}, {1}, {1}, {1}, {1}, {1}, {1}, {1}, {1}, {1}];
InstructorRolesPerProgramm = [|{1, 2, 4, 5, 11, 14, 15, 17, 19, 21, 25, 34, 35, 40, 44, 47, 48, 51, 52, 53}, {2, 3, 4, 5, 7, 9, 10, 11, 12, 13, 15, 18, 19, 21, 22, 27, 31, 32, 34, 38, 41, 43, 44, 45, 46, 51}, {4, 5, 6, 7, 10, 12, 14, 15, 16, 17, 18, 20, 22, 23, 25, 29, 31, 32, 33, 39, 41, 45, 46, 47, 50, 51}, {3, 5, 14, 17, 18, 20, 21, 22, 23, 26, 27, 28, 29, 30, 31, 32, 33, 35, 40, 42, 43, 44, 47, 50, 51, 52, 53}|];
InstructorsAvailability = [|0, 1, 1, 0, 1, |1, 1, 0, 0, 1, |0, 1, 1, 1, 1, |1, 0, 0, 0, 1, |0, 0, 1, 1, 1, |1, 0, 0, 1, 1, |1, 1, 1, 1, 1, |1, 0, 1, 1, 1, |0, 1, 1, 1, 1, |0, 0, 0, 1, 1, |1, 1, 1, 0, 1, |0, 0, 0, 1, 1, |0, 1, 0, 1, 1, |0, 0, 1, 1, 1, |1, 1, 1, 1, 1, |1, 1, 1, 1, 1, |0, 1, 1, 1, 0, |1, 1, 0, 1, 0, |0, 0, 1, 1, 1, |0, 1, 1, 1, 1, |0, 1, 1, 1, 0, |1, 1, 1, 1, 1, |0, 1, 1, 0, 1, |0, 0, 0, 0, 0, |0, 1, 1, 1, 1, |1, 1, 1, 0, 1, |0, 1, 1, 1, 1, |0, 1, 1, 1, 1, |0, 0, 1, 0, 1, |0, 1, 1, 1, 0, |1, 1, 1, 1, 1, |0, 1, 0, 1, 1, |0, 1, 1, 1, 1, |1, 1, 1, 1, 1, |1, 1, 1, 1, 1, |0, 0, 1, 1, 1, |1, 1, 1, 1, 1, |0, 1, 1, 1, 1, |0, 1, 1, 1, 1, |1, 1, 1, 1, 1, |1, 1, 1, 1, 1, |1, 1, 1, 1, 1, |1, 1, 1, 0, 1, |1, 1, 1, 0, 1, |0, 1, 0, 1, 1, |0, 1, 1, 1, 1, |0, 1, 1, 1, 1, |1, 1, 1, 1, 1, |1, 1, 1, 0, 1, |0, 1, 0, 1, 1, |0, 1, 0, 0, 1, |1, 0, 1, 1, 1, |1, 1, 1, 1, 1|];
StudentsProgramm = [1, 1, 1, 1, 1, 1, 1, 1, 1, 1];
StudentsDegree = [2, 2, 1, 3, 1, 3, 3, 2, 1, 3];
StudentsSupervisorId = [39, 2, 50, 18, 18, 31, 26, 39, 9, 42];
StudentsCourseIds = [{1, 3, 4, 6}, {1, 3, 4, 6}, {1, 2, 3, 6, 7}, {}, {1, 2, 5, 6, 7}, {}, {}, {2, 3, 5, 6}, {2, 3, 4, 6, 7}, {}];
StudentsAvailability = [|0, 1, 1, 1, 1, |0, 0, 1, 1, 1, |0, 0, 1, 1, 1, |0, 1, 1, 1, 1, |1, 1, 1, 0, 1, |0, 1, 1, 1, 1, |0, 1, 0, 1, 0, |0, 1, 1, 1, 1, |1, 1, 1, 1, 1, |1, 1, 1, 1, 1|];
TheoryticalMinCard = [0, 0, 0, 0, 0, 0, 0, 0, 0, 0];
CoursesInstructorIds = [{2, 3, 6, 8, 10, 11, 13, 14, 23, 29, 30, 31, 33, 37, 38, 41, 42, 43, 45, 49, 50, 52}, {3, 6, 8, 9, 15, 17, 21, 27, 31, 32, 35, 38, 40, 43, 50, 52, 53}, {1, 4, 6, 7, 8, 9, 11, 14, 17, 18, 19, 20, 23, 25, 27, 28, 30, 32, 33, 34, 36, 37, 39, 40, 42, 44, 45, 46, 48, 49, 51, 52, 53}, {2, 4, 9, 10, 12, 13, 26, 27, 28, 31, 38, 43, 49, 50, 52}, {6, 33}, {2, 3, 8, 11, 14, 17, 25, 34, 35, 40, 43, 45, 46, 47, 48}, {3, 6, 8, 9, 10, 11, 12, 13, 15, 16, 18, 20, 21, 22, 23, 25, 26, 29, 32, 35, 36, 38, 39, 40, 42, 46, 49, 50, 52, 53}];
RolesDemands = [19, 5, 16, 27];
RolesContinuity = [1, 3];
ExamLen = [2, 2, 2, 2, 2, 2, 2, 2, 2, 2];
LunchTsMinLen = 0;
LunchStarts = [2..6];
SupervisorAvailable = 0;
OptimalLunchLenght = [3, 0];
OptimalStartTs = [2, 1];
OptimalFinishTs = [2, 10];
MinimizeRooms = 100;
RolesSoftContinuity = [|1, 2, 3, 4|4, 0, 3, 3|];
SameDegreeInRoom = 0;
Mergeability = 0;
